NAME : 2.75369.tour
COMMENT : Length = 75369
COMMENT : Found by LKH-3 [Keld Helsgaun] Thu Jun 19 18:15:57 2025
TYPE : TOUR
DIMENSION : 100
TOUR_SECTION
1
84
65
76
27
56
48
36
4
42
34
62
11
24
8
32
51
70
30
7
72
2
37
53
98
25
49
54
38
94
15
95
82
78
46
83
85
44
75
21
88
12
41
17
61
87
71
63
60
92
9
59
5
90
69
18
47
86
14
55
77
39
99
50
45
73
19
68
33
28
20
66
80
64
97
96
22
31
43
16
3
29
26
58
100
89
13
81
10
57
23
74
67
93
6
52
79
40
35
91
-1
EOF
